Version identifier: 22.1.0.0 | 2022-03-09 | 1a383f8ce
CPXPARAM_Threads                                 1
CPXPARAM_MIP_Strategy_VariableSelect             3
CPXPARAM_TimeLimit                               599.99715005999997
Tried aggregator 1 time.
MIP Presolve eliminated 13 rows and 0 columns.
MIP Presolve modified 2 coefficients.
Reduced MIP has 912 rows, 2869 columns, and 32078 nonzeros.
Reduced MIP has 2869 binaries, 0 generals, 0 SOSs, and 0 indicators.
Presolve time = 0.02 sec. (15.30 ticks)
Probing time = 0.00 sec. (3.33 ticks)
Tried aggregator 1 time.
Detecting symmetries...
Reduced MIP has 912 rows, 2869 columns, and 32078 nonzeros.
Reduced MIP has 2869 binaries, 0 generals, 0 SOSs, and 0 indicators.
Presolve time = 0.02 sec. (18.71 ticks)
Probing time = 0.00 sec. (3.33 ticks)
Clique table members: 597.
MIP emphasis: balance optimality and feasibility.
MIP search method: dynamic search.
Parallel mode: none, using 1 thread.
Root relaxation solution time = 0.05 sec. (49.04 ticks)

        Nodes                                         Cuts/
   Node  Left     Objective  IInf  Best Integer    Best Bound    ItCnt     Gap

      0     0        0.0000   449                      0.0000      712         
*     0+    0                            0.0000        0.0000             0.00%
      0     0        cutoff              0.0000        0.0000      712    0.00%
Elapsed time = 0.41 sec. (311.08 ticks, tree = 0.01 MB, solutions = 1)

Root node processing (before b&c):
  Real time             =    0.41 sec. (311.17 ticks)
Sequential b&c:
  Real time             =    0.00 sec. (0.00 ticks)
                          ------------
Total (root+branch&cut) =    0.41 sec. (311.17 ticks)
Version identifier: 22.1.0.0 | 2022-03-09 | 1a383f8ce
CPXPARAM_Threads                                 1
CPXPARAM_MIP_Strategy_VariableSelect             3
CPXPARAM_TimeLimit                               599.56253481500005
Tried aggregator 1 time.
MIP Presolve eliminated 13 rows and 0 columns.
MIP Presolve modified 1 coefficients.
Reduced MIP has 1362 rows, 4294 columns, and 48278 nonzeros.
Reduced MIP has 4294 binaries, 0 generals, 0 SOSs, and 0 indicators.
Presolve time = 0.03 sec. (22.63 ticks)
Probing time = 0.00 sec. (3.65 ticks)
Tried aggregator 1 time.
Detecting symmetries...
Reduced MIP has 1362 rows, 4294 columns, and 48278 nonzeros.
Reduced MIP has 4294 binaries, 0 generals, 0 SOSs, and 0 indicators.
Presolve time = 0.03 sec. (28.01 ticks)
Probing time = 0.00 sec. (3.65 ticks)
Clique table members: 897.
MIP emphasis: balance optimality and feasibility.
MIP search method: dynamic search.
Parallel mode: none, using 1 thread.
Root relaxation solution time = 0.37 sec. (354.72 ticks)

        Nodes                                         Cuts/
   Node  Left     Objective  IInf  Best Integer    Best Bound    ItCnt     Gap

      0     0        0.0000   903                      0.0000     2249         
*     0+    0                            0.0000        0.0000             0.00%
      0     0        cutoff              0.0000        0.0000     2249    0.00%
Elapsed time = 1.21 sec. (1080.39 ticks, tree = 0.01 MB, solutions = 1)

Root node processing (before b&c):
  Real time             =    1.21 sec. (1080.52 ticks)
Sequential b&c:
  Real time             =    0.00 sec. (0.00 ticks)
                          ------------
Total (root+branch&cut) =    1.21 sec. (1080.52 ticks)
Version identifier: 22.1.0.0 | 2022-03-09 | 1a383f8ce
CPXPARAM_Threads                                 1
CPXPARAM_MIP_Strategy_VariableSelect             3
CPXPARAM_TimeLimit                               598.32377775800001
Tried aggregator 1 time.
MIP Presolve eliminated 13 rows and 0 columns.
MIP Presolve modified 1 coefficients.
Reduced MIP has 1584 rows, 4997 columns, and 56270 nonzeros.
Reduced MIP has 4997 binaries, 0 generals, 0 SOSs, and 0 indicators.
Presolve time = 0.03 sec. (26.30 ticks)
Probing time = 0.01 sec. (3.81 ticks)
Tried aggregator 1 time.
Detecting symmetries...
Reduced MIP has 1584 rows, 4997 columns, and 56270 nonzeros.
Reduced MIP has 4997 binaries, 0 generals, 0 SOSs, and 0 indicators.
Presolve time = 0.04 sec. (32.61 ticks)
Probing time = 0.01 sec. (3.81 ticks)
Clique table members: 1045.
MIP emphasis: balance optimality and feasibility.
MIP search method: dynamic search.
Parallel mode: none, using 1 thread.
Root relaxation solution time = 0.71 sec. (719.64 ticks)

        Nodes                                         Cuts/
   Node  Left     Objective  IInf  Best Integer    Best Bound    ItCnt     Gap

      0     0        0.0000  1143                      0.0000     3186         
*     0+    0                            0.0000        0.0000             0.00%
      0     0        cutoff              0.0000        0.0000     3186    0.00%
Elapsed time = 2.53 sec. (2491.07 ticks, tree = 0.01 MB, solutions = 1)

Root node processing (before b&c):
  Real time             =    2.53 sec. (2491.22 ticks)
Sequential b&c:
  Real time             =    0.00 sec. (0.00 ticks)
                          ------------
Total (root+branch&cut) =    2.53 sec. (2491.22 ticks)
Version identifier: 22.1.0.0 | 2022-03-09 | 1a383f8ce
CPXPARAM_Threads                                 1
CPXPARAM_MIP_Strategy_VariableSelect             3
CPXPARAM_TimeLimit                               595.75829604099999
Tried aggregator 1 time.
MIP Presolve eliminated 13 rows and 0 columns.
MIP Presolve modified 1 coefficients.
Reduced MIP has 1698 rows, 5358 columns, and 60374 nonzeros.
Reduced MIP has 5358 binaries, 0 generals, 0 SOSs, and 0 indicators.
Presolve time = 0.04 sec. (28.17 ticks)
Probing time = 0.01 sec. (3.88 ticks)
Tried aggregator 1 time.
Detecting symmetries...
Reduced MIP has 1698 rows, 5358 columns, and 60374 nonzeros.
Reduced MIP has 5358 binaries, 0 generals, 0 SOSs, and 0 indicators.
Presolve time = 0.04 sec. (34.99 ticks)
Probing time = 0.01 sec. (3.88 ticks)
Clique table members: 1121.
MIP emphasis: balance optimality and feasibility.
MIP search method: dynamic search.
Parallel mode: none, using 1 thread.
Root relaxation solution time = 0.89 sec. (905.24 ticks)

        Nodes                                         Cuts/
   Node  Left     Objective  IInf  Best Integer    Best Bound    ItCnt     Gap

      0     0        0.0000  1215                      0.0000     3746         
      0     0        0.0000   291                     Cuts: 5     4484         
      0     0        0.0000   430                    Cuts: 84     5459         
      0     2        0.0000   152                      0.0000     5459         
Elapsed time = 12.68 sec. (12904.01 ticks, tree = 0.01 MB, solutions = 0)
      2     2        0.0000   169                      0.0000     5939         
      3     3        0.0000   176                      0.0000     7394         
      5     5        0.0000   187                      0.0000    12592         
      6     6        0.0000   178                      0.0000    12724         
      7     7        0.0000   192                      0.0000    13101         
      8     8        0.0000   246                      0.0000    14963         
      9     9        0.0000   199                      0.0000    15350         
     10    10        0.0000   186                      0.0000    15554         
     11    11        0.0000   220                      0.0000    17693         
     15    15        0.0000   233                      0.0000    19441         
Elapsed time = 19.40 sec. (19413.33 ticks, tree = 0.14 MB, solutions = 0)
     19    19        0.0000   244                      0.0000    21161         
     22    22        0.0000   181                      0.0000    21819         
     26    26        0.0000   250                      0.0000    23148         
     30    30        0.0000   194                      0.0000    23964         
     34    33        0.0000   182                      0.0000    25275         
     38    36        0.0000   199                      0.0000    27518         
     42    40        0.0000   199                      0.0000    28897         
     46    44        0.0000   177                      0.0000    30976         
     49    47        0.0000   163                      0.0000    32720         
     52    50        0.0000   210                      0.0000    36651         
Elapsed time = 31.29 sec. (30746.97 ticks, tree = 0.65 MB, solutions = 0)
     56    53        0.0000   165                      0.0000    38991         
     61    58        0.0000   196                      0.0000    44289         
     64    60        0.0000   195                      0.0000    45914         
     69    62        0.0000   259                      0.0000    48589         
     73    66        0.0000   398                      0.0000    50223         
     79    72        0.0000   279                      0.0000    51390         
     80    73        0.0000   222                      0.0000    51421         
     85    76        0.0000   235                      0.0000    52915         
     90    81        0.0000   258                      0.0000    54208         
     95    85        0.0000   233                      0.0000    55909         
Elapsed time = 43.99 sec. (42569.46 ticks, tree = 1.17 MB, solutions = 0)
    100    90        0.0000   248                      0.0000    56559         
    105    95        0.0000   221                      0.0000    57732         
    111   101        0.0000   297                      0.0000    59079         
    117   107        0.0000   192                      0.0000    60449         
    122   111        0.0000   205                      0.0000    62247         
    127   116        0.0000   196                      0.0000    63847         
    134   123        0.0000   160                      0.0000    64878         
    140   129        0.0000   148                      0.0000    66547         
    146   134        0.0000   288                      0.0000    68735         
    152   139        0.0000   252                      0.0000    70270         
Elapsed time = 55.39 sec. (53032.80 ticks, tree = 2.00 MB, solutions = 0)
    158   145        0.0000   275                      0.0000    72759         
    163   149        0.0000   171                      0.0000    74370         
    168   153        0.0000   147                      0.0000    76154         
    174   158        0.0000   221                      0.0000    78213         
    180   164        0.0000   151                      0.0000    80112         
    186   169        0.0000   278                      0.0000    82233         
    192   174        0.0000   169                      0.0000    84030         
    197   179        0.0000   143                      0.0000    86312         
    200   182        0.0000   245                      0.0000    88010         
    206   188        0.0000   198                      0.0000    90418         
Elapsed time = 67.40 sec. (63841.13 ticks, tree = 2.77 MB, solutions = 0)
    212   194        0.0000   333                      0.0000    93196         
    218   200        0.0000   139                      0.0000    95251         
    223   205        0.0000   343                      0.0000    97817         
    229   211        0.0000   133                      0.0000    99652         
    236   217        0.0000   164                      0.0000   101336         
    242   223        0.0000   326                      0.0000   103435         
    251   230        0.0000    66                      0.0000   105148         
    260   239        0.0000   126                      0.0000   107011         
    271   249        0.0000   110                      0.0000   108538         
    283   259        0.0000   104                      0.0000   110261         
Elapsed time = 78.87 sec. (73950.21 ticks, tree = 3.91 MB, solutions = 0)
    293   267        0.0000   109                      0.0000   112871         
    303   275        0.0000   162                      0.0000   115896         
    318   283        0.0000   129                      0.0000   119104         
    328   292        0.0000   181                      0.0000   121359         
    343   298    infeasible                            0.0000   124313         
    355   303        0.0000   114                      0.0000   127088         
    363   310        0.0000    83                      0.0000   129010         
    374   320        0.0000   114                      0.0000   131236         
    385   330        0.0000   109                      0.0000   132989         
    397   339        0.0000   113                      0.0000   135776         
Elapsed time = 91.08 sec. (83955.13 ticks, tree = 5.17 MB, solutions = 0)
    412   343        0.0000   117                      0.0000   139666         
    427   347        0.0000   104                      0.0000   143058         
    435   354        0.0000    80                      0.0000   145061         
    443   360        0.0000   160                      0.0000   146107         
    453   368        0.0000   137                      0.0000   148573         
    465   373        0.0000   172                      0.0000   151451         
    479   377        0.0000   204                      0.0000   154990         
    494   378        0.0000   202                      0.0000   158480         
    507   381        0.0000   115                      0.0000   161757         
    515   388        0.0000   162                      0.0000   164214         
Elapsed time = 103.53 sec. (94097.98 ticks, tree = 5.93 MB, solutions = 0)
    525   394        0.0000   201                      0.0000   166945         
    535   400        0.0000   191                      0.0000   170585         
    546   402    infeasible                            0.0000   173949         
    556   405        0.0000   285                      0.0000   176602         
    564   409        0.0000   136                      0.0000   179915         
    574   418        0.0000    64                      0.0000   182271         
    585   426        0.0000   124                      0.0000   184801         
    598   434        0.0000   105                      0.0000   187160         
    611   437        0.0000   112                      0.0000   192000         
    621   447        0.0000   127                      0.0000   194750         
Elapsed time = 116.07 sec. (104297.53 ticks, tree = 6.86 MB, solutions = 0)
    632   457        0.0000   107                      0.0000   197321         
    643   465        0.0000   147                      0.0000   199746         
    657   467        0.0000    85                      0.0000   204588         
    667   476        0.0000   111                      0.0000   206482         
    682   484        0.0000    40                      0.0000   209038         
    691   492        0.0000    45                      0.0000   211598         
    703   503        0.0000    78                      0.0000   213672         
    713   510    infeasible                            0.0000   217539         
    734   511    infeasible                            0.0000   222447         
    783   526        0.0000    85                      0.0000   236455         
Elapsed time = 131.71 sec. (116992.92 ticks, tree = 8.13 MB, solutions = 0)
*   821     1      integral     0        0.0000        0.0000   243060    0.00%

Clique cuts applied:  20
Zero-half cuts applied:  23
Lift and project cuts applied:  1

Root node processing (before b&c):
  Real time             =   12.62 sec. (12859.28 ticks)
Sequential b&c:
  Real time             =  122.61 sec. (107052.08 ticks)
                          ------------
Total (root+branch&cut) =  135.23 sec. (119911.36 ticks)
Version identifier: 22.1.0.0 | 2022-03-09 | 1a383f8ce
CPXPARAM_Threads                                 1
CPXPARAM_MIP_Strategy_VariableSelect             3
CPXPARAM_TimeLimit                               460.49624896
Tried aggregator 1 time.
MIP Presolve eliminated 13 rows and 0 columns.
MIP Presolve modified 1 coefficients.
Reduced MIP has 1752 rows, 5529 columns, and 62318 nonzeros.
Reduced MIP has 5529 binaries, 0 generals, 0 SOSs, and 0 indicators.
Presolve time = 0.04 sec. (29.04 ticks)
Probing time = 0.01 sec. (3.92 ticks)
Tried aggregator 1 time.
Detecting symmetries...
Reduced MIP has 1752 rows, 5529 columns, and 62318 nonzeros.
Reduced MIP has 5529 binaries, 0 generals, 0 SOSs, and 0 indicators.
Presolve time = 0.04 sec. (36.07 ticks)
Probing time = 0.01 sec. (3.92 ticks)
Clique table members: 1157.
MIP emphasis: balance optimality and feasibility.
MIP search method: dynamic search.
Parallel mode: none, using 1 thread.
Root relaxation solution time = 1.06 sec. (1078.05 ticks)

        Nodes                                         Cuts/
   Node  Left     Objective  IInf  Best Integer    Best Bound    ItCnt     Gap

      0     0        0.0000  1254                      0.0000     4149         
      0     0        0.0000   641                     Cuts: 9     5458         
      0     0        0.0000   383                     Cuts: 8     6175         
      0     0        0.0000   669                   Cuts: 127     8973         
      0     0        0.0000   480                  Cliques: 1     9151         
      0     0        0.0000   770                   Cuts: 106    11656         
      0     2        0.0000   431                      0.0000    11656         
Elapsed time = 25.16 sec. (25922.54 ticks, tree = 0.01 MB, solutions = 0)
      2     2        0.0000   678                      0.0000    15462         
      3     2        0.0000   675                      0.0000    15674         
      4     3        0.0000   659                      0.0000    15680         
      5     4        0.0000   664                      0.0000    15851         
      6     5        0.0000   679                      0.0000    18500         
      7     6        0.0000   717                      0.0000    25299         
      8     7        0.0000   665                      0.0000    25307         
      9     8        0.0000   643                      0.0000    25790         
     10     9        0.0000   764                      0.0000    29974         
     12    11        0.0000   639                      0.0000    33153         
Elapsed time = 35.93 sec. (36594.14 ticks, tree = 0.05 MB, solutions = 0)
     13    12        0.0000   687                      0.0000    36361         
     16    14        0.0000   675                      0.0000    40498         
     19    17        0.0000   667                      0.0000    41860         
     22    20        0.0000   630                      0.0000    44362         
     26    24        0.0000   857                      0.0000    47136         
     30    26        0.0000   810                      0.0000    49532         
     34    30        0.0000   742                      0.0000    52496         
     38    34        0.0000   780                      0.0000    55779         
     41    37        0.0000   714                      0.0000    64336         
     44    40        0.0000   894                      0.0000    66073         
Elapsed time = 50.19 sec. (50744.78 ticks, tree = 0.12 MB, solutions = 0)
     48    44        0.0000   773                      0.0000    68244         
     50    46        0.0000   724                      0.0000    68834         
     54    50        0.0000   717                      0.0000    70343         
     58    54        0.0000   725                      0.0000    71987         
     62    58        0.0000   704                      0.0000    72678         
     66    62        0.0000   759                      0.0000    75649         
     70    64    infeasible                            0.0000    78186         
     73    67        0.0000   717                      0.0000    78784         
     76    70        0.0000   845                      0.0000    82255         
     79    73        0.0000   666                      0.0000    88901         
Elapsed time = 66.26 sec. (67052.04 ticks, tree = 0.20 MB, solutions = 0)
     83    77        0.0000   673                      0.0000    90783         
     87    79        0.0000   726                      0.0000    92942         
     91    83        0.0000   667                      0.0000    94405         
     94    84    infeasible                            0.0000    98459         
     99    87        0.0000   648                      0.0000   101965         
    100    88        0.0000   654                      0.0000   102254         
    104    92        0.0000   670                      0.0000   103946         
    108    96        0.0000   670                      0.0000   107043         
    111    99        0.0000   624                      0.0000   108446         
    113   101        0.0000   744                      0.0000   112312         
Elapsed time = 85.87 sec. (86063.82 ticks, tree = 0.28 MB, solutions = 0)
    116   104        0.0000   739                      0.0000   114214         
    120   108        0.0000   710                      0.0000   116672         
    125   113        0.0000   705                      0.0000   118052         
    129   117        0.0000   698                      0.0000   120588         
    133   119        0.0000   694                      0.0000   124528         
    137   123        0.0000   860                      0.0000   127895         
    141   127        0.0000   807                      0.0000   129120         
    145   131        0.0000   878                      0.0000   130247         
    149   134        0.0000   872                      0.0000   131171         
    153   138        0.0000   832                      0.0000   131962         
Elapsed time = 97.26 sec. (97414.73 ticks, tree = 0.37 MB, solutions = 0)
    157   142        0.0000   794                      0.0000   133231         
    161   146        0.0000   800                      0.0000   134838         
    165   150        0.0000   849                      0.0000   136830         
    168   153        0.0000   834                      0.0000   142643         
    169   154        0.0000   803                      0.0000   147407         
    172   157        0.0000   805                      0.0000   148623         
    177   160        0.0000   793                      0.0000   150693         
    181   164        0.0000   801                      0.0000   152247         
    185   167        0.0000   787                      0.0000   154150         
    188   170        0.0000   705                      0.0000   158505         
Elapsed time = 109.30 sec. (109326.44 ticks, tree = 0.44 MB, solutions = 0)
    194   170        0.0000   702                      0.0000   164833         
    199   169    infeasible                            0.0000   171131         
    201   169        0.0000   705                      0.0000   179134         
    205   173        0.0000   706                      0.0000   180982         
    208   176        0.0000   869                      0.0000   183829         
    212   180        0.0000   782                      0.0000   186357         
    216   184        0.0000   794                      0.0000   189829         
    220   188        0.0000   709                      0.0000   191894         
    223   191        0.0000   764                      0.0000   194243         
    227   195        0.0000   829                      0.0000   196737         
Elapsed time = 123.53 sec. (123303.42 ticks, tree = 0.49 MB, solutions = 0)
    230   198        0.0000   705                      0.0000   198470         
    231   199        0.0000   696                      0.0000   201759         
    234   202        0.0000   836                      0.0000   205475         
    238   206        0.0000   783                      0.0000   209093         
    241   207        0.0000   700                      0.0000   211583         
    244   210        0.0000   800                      0.0000   214001         
    245   211        0.0000   658                      0.0000   220895         
    249   215        0.0000   674                      0.0000   222865         
    252   218        0.0000   649                      0.0000   224300         
    255   221        0.0000   835                      0.0000   227448         
Elapsed time = 135.71 sec. (135401.30 ticks, tree = 0.55 MB, solutions = 0)
    259   225        0.0000   783                      0.0000   231540         
    263   229        0.0000   823                      0.0000   233769         
    267   233        0.0000   726                      0.0000   236422         
    271   237        0.0000   853                      0.0000   239814         
    273   239        0.0000   748                      0.0000   247882         
    277   243        0.0000   804                      0.0000   249443         
    281   247        0.0000   858                      0.0000   252849         
    285   251        0.0000   817                      0.0000   256035         
    289   255        0.0000   875                      0.0000   259620         
    293   259        0.0000   991                      0.0000   260867         
Elapsed time = 148.95 sec. (148441.99 ticks, tree = 0.64 MB, solutions = 0)
    297   263        0.0000   796                      0.0000   263886         
    301   267        0.0000   678                      0.0000   266580         
    305   271        0.0000   686                      0.0000   268075         
    309   275        0.0000   802                      0.0000   270423         
    310   276        0.0000   718                      0.0000   276279         
    314   280        0.0000   725                      0.0000   277895         
    318   284        0.0000   738                      0.0000   279801         
    322   288        0.0000   733                      0.0000   281528         
    326   292        0.0000   741                      0.0000   284076         
    341   305        0.0000   835                      0.0000   293721         
Elapsed time = 164.11 sec. (163278.05 ticks, tree = 0.76 MB, solutions = 0)
    356   318        0.0000   744                      0.0000   302510         
    373   331        0.0000   724                      0.0000   309019         
    388   344        0.0000   835                      0.0000   319203         
    404   358        0.0000   768                      0.0000   328360         
    419   371        0.0000   690                      0.0000   338855         
    436   386        0.0000   756                      0.0000   348584         
    452   400    infeasible                            0.0000   358712         
    468   414        0.0000   845                      0.0000   369722         
    484   428    infeasible                            0.0000   380319         
    499   442        0.0000   698                      0.0000   389325         
Elapsed time = 205.09 sec. (202601.06 ticks, tree = 1.09 MB, solutions = 0)
    515   456        0.0000   685                      0.0000   402778         
    530   471        0.0000   796                      0.0000   412661         
    540   479        0.0000   674                      0.0000   426241         
    553   492        0.0000   670                      0.0000   440383         
    560   498        0.0000   759                      0.0000   445494         
    578   514        0.0000   748                      0.0000   451450         
    598   530        0.0000   733                      0.0000   457926         
    616   545        0.0000   669                      0.0000   465730         
    633   562        0.0000   681                      0.0000   475823         
    640   569        0.0000   756                      0.0000   480981         
Elapsed time = 253.48 sec. (247608.52 ticks, tree = 1.41 MB, solutions = 0)
    658   587        0.0000   755                      0.0000   490778         
    674   601        0.0000   728                      0.0000   502183         
    692   617        0.0000   778                      0.0000   511740         
    712   633        0.0000   719                      0.0000   520762         
    731   648        0.0000   585                      0.0000   541000         
    750   650        0.0000   477                      0.0000   578248         
    773   649    infeasible                            0.0000   623019         
    801   650    infeasible                            0.0000   663922         
    831   650    infeasible                            0.0000   703701         
    862   652        0.0000   414                      0.0000   741728         
Elapsed time = 300.10 sec. (286943.51 ticks, tree = 1.61 MB, solutions = 0)
    888   654        0.0000   411                      0.0000   789237         
    905   654    infeasible                            0.0000   825875         
    927   656    infeasible                            0.0000   866513         
    965   654    infeasible                            0.0000   886819         
    999   656    infeasible                            0.0000   906121         
   1033   654        0.0000   409                      0.0000   930685         
   1070   655        0.0000   374                      0.0000   949029         
   1100   649    infeasible                            0.0000   977188         
   1123   649    infeasible                            0.0000  1003293         
   1148   651        0.0000   481                      0.0000  1024195         
Elapsed time = 346.54 sec. (325678.71 ticks, tree = 1.63 MB, solutions = 0)
   1182   650        0.0000   477                      0.0000  1045723         
   1210   650        0.0000   454                      0.0000  1069784         
   1240   649    infeasible                            0.0000  1091652         
   1265   649        0.0000   414                      0.0000  1121550         
   1289   649        0.0000   438                      0.0000  1153964         
   1314   648    infeasible                            0.0000  1187255         
   1343   651        0.0000   435                      0.0000  1209798         
   1374   649    infeasible                            0.0000  1230367         
   1402   649        0.0000   414                      0.0000  1252750         
   1434   647    infeasible                            0.0000  1273328         
Elapsed time = 392.23 sec. (364475.68 ticks, tree = 1.60 MB, solutions = 0)
   1459   650        0.0000   426                      0.0000  1297601         
   1479   652        0.0000   457                      0.0000  1315653         
   1511   653        0.0000   433                      0.0000  1327339         
   1544   656        0.0000   408                      0.0000  1337025         
   1578   656    infeasible                            0.0000  1347756         
   1606   658        0.0000   425                      0.0000  1359318         
   1641   657    infeasible                            0.0000  1370281         
   1676   658        0.0000   390                      0.0000  1381035         
   1715   659        0.0000   381                      0.0000  1389438         
   1745   659        0.0000   379                      0.0000  1402116         
Elapsed time = 435.87 sec. (403488.88 ticks, tree = 1.78 MB, solutions = 0)
   1781   656    infeasible                            0.0000  1413222         
   1812   658        0.0000   410                      0.0000  1423113         
   1847   656        0.0000   420                      0.0000  1434231         
   1880   663        0.0000   374                      0.0000  1442996         
   1915   664        0.0000   405                      0.0000  1453820         

Clique cuts applied:  36
Zero-half cuts applied:  24
Gomory fractional cuts applied:  1

Root node processing (before b&c):
  Real time             =   25.10 sec. (25876.31 ticks)
Sequential b&c:
  Real time             =  435.39 sec. (399723.00 ticks)
                          ------------
Total (root+branch&cut) =  460.50 sec. (425599.31 ticks)
Primal:	282
Dual:	290
Status:	Optimal
Time:	600.029
Sequence:
	15
	9
	0
	15
	7
	10
	5
	17
	0
	15
	7
	10
	5
	15
	3
	15
	0
	10
	8
	4
	10
	8
	15
	0
	3
	15
	0
	15
	8
	10
	4
	0
	7
	15
	0
	15
	0
	15
	7
	1
	15
	7
	10
	5
	17
	0
	15
	7
	10
	5
	17
	0
	10
	7
	15
	0
	12
	5
	10
	7
	10
	6
	15
	2
	0
	15
	1
	2
	10
	5
	15
	0
	15
	2
	15
	0
	6
	15
	2
	15
	5
	13
	4
	15
	2
	15
	0
	10
	8
	4
	10
	5
	10
	5
	3
	15
	5
	10
	5
	15
	2
	6
	10
	7
	10
	5
	12
	0
	15
	7
	10
	5
	12
	5
	15
	2
	10
	6
	15
	2
	15
	5
	12
	5
	10
	7
	10
	5
	17
	0
	15
	7
	0
	15
	7
	11
	0
	15
	0
	15
	4
	10
	8
	5
	10
	4
	15
	0
	8
	10
	4
	15
	0
	15
	8
	10
	4
	8
	10
	5
	7
	10
	4
	13
	0
	15
	7
	11
	0
	15
	0
	15
	3
	5
	10
	5
	15
	2
	6
	15
	0
	7
	15
	1
	15
	5
	10
	2
	15
	4
	13
	5
	10
	7
	10
	5
	12
	5
	10
	7
	10
	6
	2
	15
	0
	15
	8
	10
	4
	8
	10
	5
	15
	3
	15
	5
	0
	15
	7
	10
	1
	10
	7
	15
	0
	17
	5
	10
	7
	15
	0
	12
	5
	10
	7
	0
	15
	0
	4
	15
	0
	15
	8
	10
	4
	5
	10
	5
	10
	7
	10
	4
	13
	5
	15
	2
	15
	6
	10
	5
	2
	15
	6
	10
	5
	15
	2
	1
	15
	7
	10
	5
	11
	7
	10
	5
	8
	10
	4
	10
	5
	13
